9 3 19 6 16 1 0 2 14 4 7 15 17 18 13 12 8 5 10 11  
6 9 19 3 16 1 0 2 14 4 7 15 10 17 13 8 5 12 18 11  
6 7 16 19 9 15 13 3 17 0 2 4 8 18 10 14 5 12 1 11  
6 9 19 3 17 1 0 2 7 15 16 14 18 12 13 4 8 5 10 11  
6 9 19 3 17 1 0 2 18 14 7 15 16 13 4 12 8 5 10 11  
6 16 9 19 18 1 0 2 3 14 7 15 17 10 13 12 4 8 5 11  
6 9 19 16 18 1 0 2 3 14 7 15 17 11 13 4 12 8 5 10  
9 3 19 6 16 1 0 2 14 4 7 15 17 12 18 13 8 5 10 11  
6 9 19 3 16 1 0 2 14 4 7 15 17 12 18 13 8 5 10 11  
6 9 19 3 17 1 0 2 18 14 7 15 16 13 4 12 8 5 10 11  
6 16 9 19 18 1 0 2 3 14 7 15 17 13 8 4 12 5 10 11  
6 9 19 16 18 1 0 2 3 14 7 15 17 11 13 4 12 8 5 10  
6 9 19 18 3 14 16 1 0 2 7 15 17 13 12 4 8 5 10 11  
6 18 19 7 17 1 0 9 2 14 3 15 16 13 4 12 8 5 10 11  
6 9 19 16 18 1 8 3 2 14 7 15 17 0 13 4 12 5 10 11  
6 9 19 3 16 1 0 2 14 4 7 15 17 18 12 13 8 5 10 11  
6 18 19 7 17 1 0 9 15 14 3 2 16 13 8 4 12 5 10 11  
6 9 19 18 16 14 3 1 0 2 4 15 7 17 13 12 8 5 10 11  
9 19 6 3 17 1 16 0 2 14 7 15 13 4 8 12 18 5 10 11  
6 9 19 3 17 1 0 2 7 14 18 15 16 13 4 12 8 5 10 11  
6 16 9 19 18 1 0 3 2 14 7 15 17 13 4 12 8 5 10 11  
18 19 7 6 17 1 0 9 2 14 3 16 15 13 12 4 8 5 10 11  
6 9 19 16 3 14 18 1 8 2 7 17 15 13 0 4 12 5 10 11  
6 9 19 7 17 1 0 2 18 14 3 15 16 13 8 4 12 5 10 11  
6 7 16 5 9 15 13 3 17 0 2 4 8 18 10 14 19 12 1 11  
6 9 16 19 18 1 0 2 3 14 7 15 17 13 4 12 8 5 10 11  
6 7 17 19 9 1 0 2 18 14 3 15 16 13 4 12 8 5 10 11  
6 7 17 1 19 9 0 3 2 14 18 15 16 13 4 12 8 5 10 11  
9 19 7 6 17 1 0 18 2 14 3 16 15 13 12 4 8 5 10 11  
6 9 19 7 16 14 3 1 0 2 4 15 18 17 13 8 5 12 10 11  
9 3 19 6 16 1 0 2 14 4 7 15 17 12 5 13 8 18 10 11  
6 9 19 18 16 1 3 14 0 2 7 17 15 13 12 4 8 5 10 11  
6 9 16 19 18 1 0 2 3 14 7 15 17 11 13 4 12 8 5 10  
9 19 6 3 14 18 16 1 0 2 7 15 17 13 12 4 8 5 10 11  
6 9 19 18 16 1 8 3 2 14 15 7 17 0 13 4 12 5 10 11  
6 9 19 18 16 3 14 1 0 2 7 15 17 13 8 4 12 5 10 11  
6 7 17 1 19 9 0 2 14 3 18 15 16 13 12 4 8 5 10 11  
6 9 19 16 18 1 0 2 3 14 7 15 17 11 13 4 12 8 5 10  
6 9 19 3 16 1 0 2 14 4 7 15 17 18 13 8 5 10 12 11  
6 9 19 3 16 1 0 2 14 4 7 15 18 17 13 8 5 10 11 12  
6 9 19 18 16 14 3 1 0 2 7 15 10 11 13 12 4 5 8 17  
6 16 9 19 18 1 0 2 3 14 7 15 17 13 12 4 8 5 10 11  
16 6 9 19 7 15 13 3 17 0 2 4 14 18 10 8 5 12 1 11  
6 9 17 7 19 1 0 2 18 14 15 3 16 13 8 4 12 5 10 11  
6 16 9 19 18 1 0 3 2 14 7 15 17 13 4 12 8 5 10 11  
6 9 19 18 17 1 0 3 2 14 7 15 16 13 8 4 12 5 10 11  
6 18 19 7 17 1 2 9 16 3 14 0 15 13 8 4 12 5 10 11  
6 18 19 9 17 1 0 3 2 14 7 15 16 13 8 4 12 5 10 11  
6 18 19 9 17 1 0 3 2 14 7 15 16 13 12 4 8 5 10 11  
6 9 16 19 3 14 18 1 0 2 7 15 10 11 13 4 8 12 5 17  
6 9 19 18 16 1 0 3 2 14 7 17 15 13 12 4 8 5 10 11  
6 9 16 19 18 1 0 2 3 14 7 15 17 10 13 4 12 8 5 11  
6 9 19 18 3 16 0 2 14 4 7 15 17 1 13 8 5 12 10 11  
6 9 19 7 16 14 3 1 0 2 18 15 10 11 13 4 12 5 8 17  
